tsp/input_files/maf.tsp
NAME: maf10
TYPE: TSP
COMMENT: 10-city problem (Victor Martinez, Eric Alzheimer, Jason Fiduk)
DIMENSION: 10
EDGE_WEIGHT_TYPE: EUC_2D
NODE_COORD_SECTION
1 13 15
2 4 21
3 7 17
4 8 11
5 10 14
6 2 15
7 14 11
8 15 20
9 17 15
10 22 15
EOF
