tsp/opt_tours/maf.opt.tour
NAME : maf.opt.tour
COMMENT : Optimal tour for maf.tsp (55.9280662927)
TYPE : Tour
DIMENSON : 10
TOUR_SECTION
1
5
3
2
6
4
7
9
10
8
-1
EOF
